(set-info :smt-lib-version 2.6)
(set-logic UF)
(set-info :source |Benchmarks from the paper: "Extending Sledgehammer with SMT Solvers" by Jasmin Blanchette, Sascha Bohme, and Lawrence C. Paulson, CADE 2011.  Translated to SMT2 by Andrew Reynolds and Morgan Deters.|)
(set-info :category "industrial")
(set-info :status sat)
(declare-sort S1 0)
(declare-sort S2 0)
(declare-sort S3 0)
(declare-sort S4 0)
(declare-sort S5 0)
(declare-sort S6 0)
(declare-sort S7 0)
(declare-sort S8 0)
(declare-sort S9 0)
(declare-sort S10 0)
(declare-sort S11 0)
(declare-sort S12 0)
(declare-sort S13 0)
(declare-sort S14 0)
(declare-sort S15 0)
(declare-sort S16 0)
(declare-sort S17 0)
(declare-fun f1 () S1)
(declare-fun f2 () S1)
(declare-fun f3 (S3 S2) S4)
(declare-fun f4 () S3)
(declare-fun f5 (S5 S6) S4)
(declare-fun f6 () S5)
(declare-fun f7 (S7 S2) S6)
(declare-fun f8 () S7)
(declare-fun f9 (S8 S4) S1)
(declare-fun f10 (S9 S8) S8)
(declare-fun f11 (S4) S9)
(declare-fun f12 (S4 S8) S1)
(declare-fun f13 (S10 S2) S1)
(declare-fun f14 (S11 S10) S10)
(declare-fun f15 (S2) S11)
(declare-fun f16 (S2 S10) S1)
(declare-fun f17 (S4) S9)
(declare-fun f18 (S2) S11)
(declare-fun f19 (S8 S8) S1)
(declare-fun f20 () S8)
(declare-fun f21 (S12 S10) S8)
(declare-fun f22 (S3) S12)
(declare-fun f23 (S13) S10)
(declare-fun f24 () S13)
(declare-fun f25 () S1)
(declare-fun f26 () S1)
(declare-fun f27 (S6) S1)
(declare-fun f28 () S6)
(declare-fun f29 (S13 S2) S14)
(declare-fun f30 () S2)
(declare-fun f31 (S6) S14)
(declare-fun f32 () S6)
(declare-fun f33 (S15 S4) S2)
(declare-fun f34 (S16 S8) S10)
(declare-fun f35 (S15) S16)
(declare-fun f36 () S10)
(declare-fun f37 (S4) S9)
(declare-fun f38 (S17 S4) S14)
(declare-fun f39 (S17) S8)
(declare-fun f40 () S1)
(declare-fun f41 (S2) S11)
(declare-fun f42 (S8) S8)
(declare-fun f43 (S10) S10)
(assert (not (= f1 f2)))
(assert (forall ((?v0 S2)) (= (f3 f4 ?v0) (f5 f6 (f7 f8 ?v0)))))
(assert (forall ((?v0 S4) (?v1 S8) (?v2 S4)) (= (= (f9 (f10 (f11 ?v0) ?v1) ?v2) f1) (or (= ?v2 ?v0) (= (f12 ?v2 ?v1) f1)))))
(assert (forall ((?v0 S2) (?v1 S10) (?v2 S2)) (= (= (f13 (f14 (f15 ?v0) ?v1) ?v2) f1) (or (= ?v2 ?v0) (= (f16 ?v2 ?v1) f1)))))
(assert (forall ((?v0 S4) (?v1 S8) (?v2 S4)) (= (= (f9 (f10 (f17 ?v0) ?v1) ?v2) f1) (=> (not (= ?v2 ?v0)) (= (f9 ?v1 ?v2) f1)))))
(assert (forall ((?v0 S2) (?v1 S10) (?v2 S2)) (= (= (f13 (f14 (f18 ?v0) ?v1) ?v2) f1) (=> (not (= ?v2 ?v0)) (= (f13 ?v1 ?v2) f1)))))
(assert (not (= (f19 f20 (f21 (f22 f4) (f23 f24))) f1)))
(assert (= f25 f1))
(assert (= f26 f1))
(assert (= (f27 f28) f1))
(assert (= (f29 f24 f30) (f31 f32)))
(assert (forall ((?v0 S8)) (= (f19 ?v0 f20) f1)))
(assert (forall ((?v0 S8) (?v1 S8) (?v2 S8)) (=> (= (f19 ?v0 ?v1) f1) (=> (= (f19 ?v2 ?v0) f1) (= (f19 ?v2 ?v1) f1)))))
(assert (forall ((?v0 S2) (?v1 S6)) (=> (= f26 f1) (=> (= (f29 f24 ?v0) (f31 ?v1)) (= (f27 ?v1) f1)))))
(assert (forall ((?v0 S2)) (=> (= (f27 (f7 f8 ?v0)) f1) (=> (forall ((?v1 S6)) (=> (= (f29 f24 ?v0) (f31 ?v1)) false)) false))))
(assert (forall ((?v0 S4) (?v1 S3) (?v2 S2) (?v3 S10)) (=> (= ?v0 (f3 ?v1 ?v2)) (=> (= (f16 ?v2 ?v3) f1) (= (f12 ?v0 (f21 (f22 ?v1) ?v3)) f1)))))
(assert (forall ((?v0 S2) (?v1 S15) (?v2 S4) (?v3 S8)) (=> (= ?v0 (f33 ?v1 ?v2)) (=> (= (f12 ?v2 ?v3) f1) (= (f16 ?v0 (f34 (f35 ?v1) ?v3)) f1)))))
(assert (forall ((?v0 S2)) (=> (= (f16 ?v0 f36) f1) false)))
(assert (forall ((?v0 S4)) (=> (= (f12 ?v0 f20) f1) false)))
(assert (forall ((?v0 S8) (?v1 S6)) (=> (= f25 f1) (=> (forall ((?v2 S2)) (=> (= (f16 ?v2 (f23 f24)) f1) (= (f19 ?v0 (f10 (f37 (f5 f6 (f7 f8 ?v2))) f20)) f1))) (=> (= (f27 ?v1) f1) (= (f19 ?v0 (f10 (f37 (f5 f6 ?v1)) f20)) f1))))))
(assert (forall ((?v0 S6)) (=> (= f25 f1) (=> (= f26 f1) (=> (= (f27 ?v0) f1) (= (f19 f20 (f10 (f37 (f5 f6 ?v0)) f20)) f1))))))
(assert (forall ((?v0 S13) (?v1 S2) (?v2 S6)) (=> (= (f29 ?v0 ?v1) (f31 ?v2)) (= (f16 ?v1 (f23 ?v0)) f1))))
(assert (forall ((?v0 S17) (?v1 S4) (?v2 S6)) (=> (= (f38 ?v0 ?v1) (f31 ?v2)) (= (f12 ?v1 (f39 ?v0)) f1))))
(assert (forall ((?v0 S3) (?v1 S10)) (= (= f20 (f21 (f22 ?v0) ?v1)) (= ?v1 f36))))
(assert (forall ((?v0 S15) (?v1 S8)) (= (= f36 (f34 (f35 ?v0) ?v1)) (= ?v1 f20))))
(assert (forall ((?v0 S3)) (= (f21 (f22 ?v0) f36) f20)))
(assert (forall ((?v0 S15)) (= (f34 (f35 ?v0) f20) f36)))
(assert (forall ((?v0 S3) (?v1 S10)) (= (= (f21 (f22 ?v0) ?v1) f20) (= ?v1 f36))))
(assert (forall ((?v0 S15) (?v1 S8)) (= (= (f34 (f35 ?v0) ?v1) f36) (= ?v1 f20))))
(assert (forall ((?v0 S4)) (= (= (f9 f20 ?v0) f1) (= f40 f1))))
(assert (forall ((?v0 S2)) (= (= (f13 f36 ?v0) f1) (= f40 f1))))
(assert (forall ((?v0 S4)) (= (= (f9 f20 ?v0) f1) (= f40 f1))))
(assert (forall ((?v0 S2)) (= (= (f13 f36 ?v0) f1) (= f40 f1))))
(assert (forall ((?v0 S4) (?v1 S4) (?v2 S8)) (=> (= (f12 ?v0 (f10 (f37 ?v1) ?v2)) f1) (=> (=> (= ?v0 ?v1) false) (=> (=> (= (f12 ?v0 ?v2) f1) false) false)))))
(assert (forall ((?v0 S2) (?v1 S2) (?v2 S10)) (=> (= (f16 ?v0 (f14 (f41 ?v1) ?v2)) f1) (=> (=> (= ?v0 ?v1) false) (=> (=> (= (f16 ?v0 ?v2) f1) false) false)))))
(assert (forall ((?v0 S4) (?v1 S8) (?v2 S4)) (=> (=> (not (= (f12 ?v0 ?v1) f1)) (= ?v0 ?v2)) (= (f12 ?v0 (f10 (f37 ?v2) ?v1)) f1))))
(assert (forall ((?v0 S2) (?v1 S10) (?v2 S2)) (=> (=> (not (= (f16 ?v0 ?v1) f1)) (= ?v0 ?v2)) (= (f16 ?v0 (f14 (f41 ?v2) ?v1)) f1))))
(assert (forall ((?v0 S4) (?v1 S8)) (= (f12 ?v0 (f10 (f37 ?v0) ?v1)) f1)))
(assert (forall ((?v0 S2) (?v1 S10)) (= (f16 ?v0 (f14 (f41 ?v0) ?v1)) f1)))
(assert (forall ((?v0 S4) (?v1 S8)) (= (f10 (f37 ?v0) ?v1) (f42 (f10 (f11 ?v0) ?v1)))))
(assert (forall ((?v0 S2) (?v1 S10)) (= (f14 (f41 ?v0) ?v1) (f43 (f14 (f15 ?v0) ?v1)))))
(assert (forall ((?v0 S4) (?v1 S8)) (= (f10 (f37 ?v0) (f42 ?v1)) (f42 (f10 (f17 ?v0) ?v1)))))
(assert (forall ((?v0 S2) (?v1 S10)) (= (f14 (f41 ?v0) (f43 ?v1)) (f43 (f14 (f18 ?v0) ?v1)))))
(assert (forall ((?v0 S4) (?v1 S8)) (let ((?v_0 (f37 ?v0))) (let ((?v_1 (f10 ?v_0 ?v1))) (= (f10 ?v_0 ?v_1) ?v_1)))))
(assert (forall ((?v0 S2) (?v1 S10)) (let ((?v_0 (f41 ?v0))) (let ((?v_1 (f14 ?v_0 ?v1))) (= (f14 ?v_0 ?v_1) ?v_1)))))
(assert (forall ((?v0 S4) (?v1 S4) (?v2 S8)) (let ((?v_1 (f37 ?v0)) (?v_0 (f37 ?v1))) (= (f10 ?v_1 (f10 ?v_0 ?v2)) (f10 ?v_0 (f10 ?v_1 ?v2))))))
(assert (forall ((?v0 S2) (?v1 S2) (?v2 S10)) (let ((?v_1 (f41 ?v0)) (?v_0 (f41 ?v1))) (= (f14 ?v_1 (f14 ?v_0 ?v2)) (f14 ?v_0 (f14 ?v_1 ?v2))))))
(assert (forall ((?v0 S4) (?v1 S4) (?v2 S8)) (= (= (f12 ?v0 (f10 (f37 ?v1) ?v2)) f1) (or (= ?v0 ?v1) (= (f12 ?v0 ?v2) f1)))))
(assert (forall ((?v0 S2) (?v1 S2) (?v2 S10)) (= (= (f16 ?v0 (f14 (f41 ?v1) ?v2)) f1) (or (= ?v0 ?v1) (= (f16 ?v0 ?v2) f1)))))
(assert (forall ((?v0 S4) (?v1 S8) (?v2 S4)) (= (= (f9 (f10 (f37 ?v0) ?v1) ?v2) f1) (or (= ?v0 ?v2) (= (f9 ?v1 ?v2) f1)))))
(assert (forall ((?v0 S2) (?v1 S10) (?v2 S2)) (= (= (f13 (f14 (f41 ?v0) ?v1) ?v2) f1) (or (= ?v0 ?v2) (= (f13 ?v1 ?v2) f1)))))
(assert (forall ((?v0 S4) (?v1 S8)) (= (f10 (f37 ?v0) ?v1) (f42 (f10 (f11 ?v0) ?v1)))))
(assert (forall ((?v0 S2) (?v1 S10)) (= (f14 (f41 ?v0) ?v1) (f43 (f14 (f15 ?v0) ?v1)))))
(assert (forall ((?v0 S4) (?v1 S8) (?v2 S8)) (let ((?v_0 (f37 ?v0))) (=> (not (= (f12 ?v0 ?v1) f1)) (=> (not (= (f12 ?v0 ?v2) f1)) (= (= (f10 ?v_0 ?v1) (f10 ?v_0 ?v2)) (= ?v1 ?v2)))))))
(assert (forall ((?v0 S2) (?v1 S10) (?v2 S10)) (let ((?v_0 (f41 ?v0))) (=> (not (= (f16 ?v0 ?v1) f1)) (=> (not (= (f16 ?v0 ?v2) f1)) (= (= (f14 ?v_0 ?v1) (f14 ?v_0 ?v2)) (= ?v1 ?v2)))))))
(assert (forall ((?v0 S4) (?v1 S8) (?v2 S4)) (=> (= (f12 ?v0 ?v1) f1) (= (f12 ?v0 (f10 (f37 ?v2) ?v1)) f1))))
(assert (forall ((?v0 S2) (?v1 S10) (?v2 S2)) (=> (= (f16 ?v0 ?v1) f1) (= (f16 ?v0 (f14 (f41 ?v2) ?v1)) f1))))
(assert (forall ((?v0 S4) (?v1 S8)) (=> (= (f12 ?v0 ?v1) f1) (= (f10 (f37 ?v0) ?v1) ?v1))))
(assert (forall ((?v0 S2) (?v1 S10)) (=> (= (f16 ?v0 ?v1) f1) (= (f14 (f41 ?v0) ?v1) ?v1))))
(assert (forall ((?v0 S4) (?v1 S4)) (=> (= (f10 (f37 ?v0) f20) (f10 (f37 ?v1) f20)) (= ?v0 ?v1))))
(assert (forall ((?v0 S2) (?v1 S2)) (=> (= (f14 (f41 ?v0) f36) (f14 (f41 ?v1) f36)) (= ?v0 ?v1))))
(assert (forall ((?v0 S4) (?v1 S4)) (=> (= (f12 ?v0 (f10 (f37 ?v1) f20)) f1) (=> (=> (= ?v0 ?v1) false) false))))
(assert (forall ((?v0 S2) (?v1 S2)) (=> (= (f16 ?v0 (f14 (f41 ?v1) f36)) f1) (=> (=> (= ?v0 ?v1) false) false))))
(assert (forall ((?v0 S4) (?v1 S4) (?v2 S4) (?v3 S4)) (= (= (f10 (f37 ?v0) (f10 (f37 ?v1) f20)) (f10 (f37 ?v2) (f10 (f37 ?v3) f20))) (or (and (= ?v0 ?v2) (= ?v1 ?v3)) (and (= ?v0 ?v3) (= ?v1 ?v2))))))
(assert (forall ((?v0 S2) (?v1 S2) (?v2 S2) (?v3 S2)) (= (= (f14 (f41 ?v0) (f14 (f41 ?v1) f36)) (f14 (f41 ?v2) (f14 (f41 ?v3) f36))) (or (and (= ?v0 ?v2) (= ?v1 ?v3)) (and (= ?v0 ?v3) (= ?v1 ?v2))))))
(assert (forall ((?v0 S4) (?v1 S4)) (= (= (f12 ?v0 (f10 (f37 ?v1) f20)) f1) (= ?v0 ?v1))))
(assert (forall ((?v0 S2) (?v1 S2)) (= (= (f16 ?v0 (f14 (f41 ?v1) f36)) f1) (= ?v0 ?v1))))
(assert (forall ((?v0 S4) (?v1 S8)) (not (= (f10 (f37 ?v0) ?v1) f20))))
(assert (forall ((?v0 S2) (?v1 S10)) (not (= (f14 (f41 ?v0) ?v1) f36))))
(check-sat)
(exit)
